c case141 in MATPOWER https://matpower.org
p edge 141 140
e 1 2
e 1 3
e 1 4
e 4 5
e 4 6
e 6 7
e 7 8
e 8 9
e 9 10
e 10 11
e 10 12
e 12 13
e 13 14
e 13 15
e 15 16
e 16 17
e 17 18
e 18 19
e 19 20
e 19 21
e 21 22
e 22 23
e 22 24
e 22 25
e 25 26
e 25 43
e 26 27
e 27 28
e 27 31
e 28 29
e 28 30
e 31 32
e 32 33
e 32 34
e 34 35
e 35 36
e 36 37
e 37 38
e 38 39
e 39 40
e 40 41
e 41 42
e 43 44
e 43 45
e 45 46
e 45 49
e 46 47
e 47 48
e 49 50
e 50 51
e 50 52
e 52 53
e 52 54
e 54 55
e 55 56
e 56 57
e 56 58
e 56 59
e 58 60
e 59 82
e 59 91
e 60 61
e 60 66
e 61 62
e 62 63
e 62 64
e 64 65
e 66 67
e 67 68
e 67 74
e 68 69
e 69 70
e 70 71
e 71 72
e 71 73
e 74 75
e 74 76
e 76 77
e 77 78
e 77 79
e 77 80
e 80 81
e 82 83
e 82 84
e 82 85
e 85 86
e 86 87
e 87 88
e 87 89
e 89 90
e 91 92
e 92 93
e 92 94
e 94 95
e 95 96
e 96 97
e 97 98
e 97 100
e 97 101
e 98 99
e 100 102
e 100 103
e 101 104
e 103 122
e 103 125
e 104 105
e 104 108
e 104 112
e 105 106
e 105 107
e 108 109
e 109 110
e 110 111
e 112 113
e 112 115
e 113 114
e 115 116
e 115 117
e 117 118
e 118 119
e 119 120
e 120 121
e 122 123
e 123 124
e 124 126
e 124 127
e 125 129
e 127 128
e 129 130
e 129 131
e 130 132
e 130 133
e 133 134
e 134 135
e 134 136
e 136 137
e 136 139
e 137 138
e 139 140
e 140 141
l 58
t 2 141
